45 47 12 82 75 38 86 9 66 
76 61 18 94 57 43 13 100 
65 83 85 32 77 
79 96 24 74 
95 44 52 11 41 22 25 58 
28 
33 23 67 51 78 46 37 70 17 
72 29 64 6 99 84 3 97 4 
98 62 87 90 49 54 89 
16 91 
36 2 59 5 10 55 68 93 
92 42 15 30 53 
27 73 21 7 40 20 1 35 48 60 
80 
63 14 69 39 31 88 19 71 81 8 34 50 26 56 

